instances/knapsack/discrete/knapsack_60_20.lp
\ Model knapsack_60_20
\ LP format - for model browsing. Use MPS format to capture full model detail.
\ Signature: 0x44a844bc7146bef8
Minimize
  - 16 x[0] - 17 x[1] - 82 x[2] - 26 x[3] - 44 x[4] - 47 x[5] - 28 x[6]
   - 18 x[7] - x[8] - 5 x[9] - 37 x[10] - 9 x[11] - 33 x[12] - 84 x[13]
   - 61 x[14] - 94 x[15] - 56 x[16] - 56 x[17] - 49 x[18] - 56 x[19]
   - 72 x[20] - 65 x[21] - 62 x[22] - 86 x[23] - 67 x[24] - 49 x[25]
   - 94 x[26] - 66 x[27] - 88 x[28] - 19 x[29] - 3 x[30] - 2 x[31]
   - 42 x[32] - 41 x[33] - 14 x[34] - 27 x[35] - 51 x[36] - 25 x[37]
   - 89 x[38] - 86 x[39] - 18 x[40] - 88 x[41] - 48 x[42] - 41 x[43]
   - 69 x[44] - 53 x[45] - 71 x[46] - 55 x[47] - 19 x[48] - 36 x[49]
   - 81 x[50] - 33 x[51] - 13 x[52] - 67 x[53] - 82 x[54] - 56 x[55]
   - 21 x[56] - 34 x[57] - 54 x[58] - 45 x[59]
Subject To
 primal_upper: 90 x[0] + 58 x[1] + 24 x[2] + 73 x[3] + 30 x[4] + 60 x[5]
   + 7 x[6] + 54 x[7] + 47 x[8] + 56 x[9] + 22 x[10] + 13 x[11] + 26 x[12]
   + 18 x[13] + 15 x[14] + 79 x[15] + 11 x[16] + 2 x[17] + 43 x[18]
   + 100 x[19] + 63 x[20] + 2 x[21] + 82 x[22] + 53 x[23] + 63 x[24]
   + 74 x[25] + 76 x[26] + 46 x[27] + 16 x[28] + 97 x[29] + 72 x[30]
   + 22 x[31] + 74 x[32] + 51 x[33] + 58 x[34] + 59 x[35] + 34 x[36]
   + 7 x[37] + 10 x[38] + 73 x[39] + 85 x[40] + 52 x[41] + 8 x[42]
   + 64 x[43] + 61 x[44] + 53 x[45] + 56 x[46] + 56 x[47] + 69 x[48]
   + 66 x[49] + 57 x[50] + 82 x[51] + 91 x[52] + 14 x[53] + 91 x[54]
   + 50 x[55] + 55 x[56] + 37 x[57] + 58 x[58] + 60 x[59] + 9 r[0]
   + 5.8 r[1] + 2.4 r[2] + 7.3 r[3] + 3 r[4] + 6 r[5] + 0.7 r[6] + 5.4 r[7]
   + 4.7 r[8] + 5.6 r[9] + 2.2 r[10] + 1.3 r[11] + 2.6 r[12] + 1.8 r[13]
   + 1.5 r[14] + 7.9 r[15] + 1.1 r[16] + 0.2 r[17] + 4.3 r[18] + 10 r[19]
   + 6.3 r[20] + 0.2 r[21] + 8.2 r[22] + 5.3 r[23] + 6.3 r[24] + 7.4 r[25]
   + 7.6 r[26] + 4.6 r[27] + 1.6 r[28] + 9.7 r[29] + 7.2 r[30] + 2.2 r[31]
   + 7.4 r[32] + 5.1 r[33] + 5.8 r[34] + 5.9 r[35] + 3.4 r[36] + 0.7 r[37]
   + r[38] + 7.3 r[39] + 8.5 r[40] + 5.2 r[41] + 0.8 r[42] + 6.4 r[43]
   + 6.1 r[44] + 5.3 r[45] + 5.6 r[46] + 5.6 r[47] + 6.9 r[48] + 6.6 r[49]
   + 5.7 r[50] + 8.2 r[51] + 9.1 r[52] + 1.4 r[53] + 9.1 r[54] + 5 r[55]
   + 5.5 r[56] + 3.7 r[57] + 5.8 r[58] + 6 r[59] <= 288
 primal_lower: 3.643361633467355 x[0] + 4.191529627649301 x[1]
   + 1.930557884458222 x[2] + 3.143175081456986 x[3]
   + 3.158958939768837 x[4] + 2.043704429863373 x[5]
   + 1.485082813408256 x[6] + 0.8535771615215273 x[7]
   + 4.827174281694469 x[8] + 1.941761052818986 x[9]
   + 0.5208343684072264 x[10] + 4.261111943328159 x[11]
   + 2.137793385187944 x[12] + 3.070906144697987 x[13]
   + 0.9117980269671707 x[14] + 0.00989638930758521 x[15]
   + 3.329658491037183 x[16] + 2.199908991702652 x[17]
   + 1.473909463770886 x[18] + 4.559724227065904 x[19]
   + 2.390488592322239 x[20] + 0.6048817658287028 x[21]
   + 4.14844499381808 x[22] + 1.548215345827215 x[23]
   + 4.395726749367357 x[24] + 3.035221673796331 x[25]
   + 2.512377104333468 x[26] + 3.899638279421604 x[27]
   + 1.319843413915197 x[28] + 1.267341128634222 x[29]
   + 0.8609921414890775 x[30] + 1.369835582805857 x[31]
   + 1.534681440122001 x[32] + 1.233638540931536 x[33]
   + 0.5461792870932491 x[34] + 1.285275386306389 x[35]
   + 1.015051537824533 x[36] + 2.108985745161549 x[37]
   + 0.8816595243123506 x[38] + 3.129685535173528 x[39]
   + 2.307446997722559 x[40] + 2.550410073680593 x[41]
   + 4.329216696792063 x[42] + 2.896049020951503 x[43]
   + 0.1543756164010284 x[44] + 2.515823217815065 x[45]
   + 0.7601384144175918 x[46] + 4.907715380094476 x[47]
   + 3.042410559657385 x[48] + 4.419696850920762 x[49]
   + 4.264225742251579 x[50] + 4.455018620466347 x[51]
   + 4.498447578262948 x[52] + 3.350445359278087 x[53]
   + 3.728843904747914 x[54] + 0.4175488794440386 x[55]
   + 3.552721897241015 x[56] + 0.3962933370561051 x[57]
   + 1.692813232491657 x[58] + 0.1476354631974087 x[59] + 14 u[0] + 74 u[1]
   + 60 u[2] + 17 u[3] + 90 u[4] + 60 u[5] + 19 u[6] + 82 u[7] + 55 u[8]
   + 76 u[9] + 6 u[10] + 73 u[11] + 54 u[12] + 86 u[13] + 15 u[14]
   + 27 u[15] + 35 u[16] + 98 u[17] + 75 u[18] + 24 u[19] + 15 u[20]
   + 70 u[21] + 42 u[22] + 97 u[23] + 47 u[24] + 22 u[25] + 80 u[26]
   + 70 u[27] + 20 u[28] + 61 u[29] + 76 u[30] + 42 u[31] + 50 u[32]
   + 83 u[33] + 18 u[34] + 39 u[35] + 18 u[36] + 47 u[37] + 98 u[38]
   + 65 u[39] + 73 u[40] + 32 u[41] + 88 u[42] + 92 u[43] + u[44]
   + 97 u[45] + 68 u[46] + 92 u[47] + 9 u[48] + 98 u[49] + 85 u[50]
   + 10 u[51] + 67 u[52] + 22 u[53] + 19 u[54] + 6 u[55] + 27 u[56]
   + 49 u[57] + 66 u[58] + 4 u[59] <= 99646
 mccormick1[0]: - u[0] + r[0] <= 0
 mccormick1[1]: - u[1] + r[1] <= 0
 mccormick1[2]: - u[2] + r[2] <= 0
 mccormick1[3]: - u[3] + r[3] <= 0
 mccormick1[4]: - u[4] + r[4] <= 0
 mccormick1[5]: - u[5] + r[5] <= 0
 mccormick1[6]: - u[6] + r[6] <= 0
 mccormick1[7]: - u[7] + r[7] <= 0
 mccormick1[8]: - u[8] + r[8] <= 0
 mccormick1[9]: - u[9] + r[9] <= 0
 mccormick1[10]: - u[10] + r[10] <= 0
 mccormick1[11]: - u[11] + r[11] <= 0
 mccormick1[12]: - u[12] + r[12] <= 0
 mccormick1[13]: - u[13] + r[13] <= 0
 mccormick1[14]: - u[14] + r[14] <= 0
 mccormick1[15]: - u[15] + r[15] <= 0
 mccormick1[16]: - u[16] + r[16] <= 0
 mccormick1[17]: - u[17] + r[17] <= 0
 mccormick1[18]: - u[18] + r[18] <= 0
 mccormick1[19]: - u[19] + r[19] <= 0
 mccormick1[20]: - u[20] + r[20] <= 0
 mccormick1[21]: - u[21] + r[21] <= 0
 mccormick1[22]: - u[22] + r[22] <= 0
 mccormick1[23]: - u[23] + r[23] <= 0
 mccormick1[24]: - u[24] + r[24] <= 0
 mccormick1[25]: - u[25] + r[25] <= 0
 mccormick1[26]: - u[26] + r[26] <= 0
 mccormick1[27]: - u[27] + r[27] <= 0
 mccormick1[28]: - u[28] + r[28] <= 0
 mccormick1[29]: - u[29] + r[29] <= 0
 mccormick1[30]: - u[30] + r[30] <= 0
 mccormick1[31]: - u[31] + r[31] <= 0
 mccormick1[32]: - u[32] + r[32] <= 0
 mccormick1[33]: - u[33] + r[33] <= 0
 mccormick1[34]: - u[34] + r[34] <= 0
 mccormick1[35]: - u[35] + r[35] <= 0
 mccormick1[36]: - u[36] + r[36] <= 0
 mccormick1[37]: - u[37] + r[37] <= 0
 mccormick1[38]: - u[38] + r[38] <= 0
 mccormick1[39]: - u[39] + r[39] <= 0
 mccormick1[40]: - u[40] + r[40] <= 0
 mccormick1[41]: - u[41] + r[41] <= 0
 mccormick1[42]: - u[42] + r[42] <= 0
 mccormick1[43]: - u[43] + r[43] <= 0
 mccormick1[44]: - u[44] + r[44] <= 0
 mccormick1[45]: - u[45] + r[45] <= 0
 mccormick1[46]: - u[46] + r[46] <= 0
 mccormick1[47]: - u[47] + r[47] <= 0
 mccormick1[48]: - u[48] + r[48] <= 0
 mccormick1[49]: - u[49] + r[49] <= 0
 mccormick1[50]: - u[50] + r[50] <= 0
 mccormick1[51]: - u[51] + r[51] <= 0
 mccormick1[52]: - u[52] + r[52] <= 0
 mccormick1[53]: - u[53] + r[53] <= 0
 mccormick1[54]: - u[54] + r[54] <= 0
 mccormick1[55]: - u[55] + r[55] <= 0
 mccormick1[56]: - u[56] + r[56] <= 0
 mccormick1[57]: - u[57] + r[57] <= 0
 mccormick1[58]: - u[58] + r[58] <= 0
 mccormick1[59]: - u[59] + r[59] <= 0
 mccormick2[0]: - x[0] + r[0] <= 0
 mccormick2[1]: - x[1] + r[1] <= 0
 mccormick2[2]: - x[2] + r[2] <= 0
 mccormick2[3]: - x[3] + r[3] <= 0
 mccormick2[4]: - x[4] + r[4] <= 0
 mccormick2[5]: - x[5] + r[5] <= 0
 mccormick2[6]: - x[6] + r[6] <= 0
 mccormick2[7]: - x[7] + r[7] <= 0
 mccormick2[8]: - x[8] + r[8] <= 0
 mccormick2[9]: - x[9] + r[9] <= 0
 mccormick2[10]: - x[10] + r[10] <= 0
 mccormick2[11]: - x[11] + r[11] <= 0
 mccormick2[12]: - x[12] + r[12] <= 0
 mccormick2[13]: - x[13] + r[13] <= 0
 mccormick2[14]: - x[14] + r[14] <= 0
 mccormick2[15]: - x[15] + r[15] <= 0
 mccormick2[16]: - x[16] + r[16] <= 0
 mccormick2[17]: - x[17] + r[17] <= 0
 mccormick2[18]: - x[18] + r[18] <= 0
 mccormick2[19]: - x[19] + r[19] <= 0
 mccormick2[20]: - x[20] + r[20] <= 0
 mccormick2[21]: - x[21] + r[21] <= 0
 mccormick2[22]: - x[22] + r[22] <= 0
 mccormick2[23]: - x[23] + r[23] <= 0
 mccormick2[24]: - x[24] + r[24] <= 0
 mccormick2[25]: - x[25] + r[25] <= 0
 mccormick2[26]: - x[26] + r[26] <= 0
 mccormick2[27]: - x[27] + r[27] <= 0
 mccormick2[28]: - x[28] + r[28] <= 0
 mccormick2[29]: - x[29] + r[29] <= 0
 mccormick2[30]: - x[30] + r[30] <= 0
 mccormick2[31]: - x[31] + r[31] <= 0
 mccormick2[32]: - x[32] + r[32] <= 0
 mccormick2[33]: - x[33] + r[33] <= 0
 mccormick2[34]: - x[34] + r[34] <= 0
 mccormick2[35]: - x[35] + r[35] <= 0
 mccormick2[36]: - x[36] + r[36] <= 0
 mccormick2[37]: - x[37] + r[37] <= 0
 mccormick2[38]: - x[38] + r[38] <= 0
 mccormick2[39]: - x[39] + r[39] <= 0
 mccormick2[40]: - x[40] + r[40] <= 0
 mccormick2[41]: - x[41] + r[41] <= 0
 mccormick2[42]: - x[42] + r[42] <= 0
 mccormick2[43]: - x[43] + r[43] <= 0
 mccormick2[44]: - x[44] + r[44] <= 0
 mccormick2[45]: - x[45] + r[45] <= 0
 mccormick2[46]: - x[46] + r[46] <= 0
 mccormick2[47]: - x[47] + r[47] <= 0
 mccormick2[48]: - x[48] + r[48] <= 0
 mccormick2[49]: - x[49] + r[49] <= 0
 mccormick2[50]: - x[50] + r[50] <= 0
 mccormick2[51]: - x[51] + r[51] <= 0
 mccormick2[52]: - x[52] + r[52] <= 0
 mccormick2[53]: - x[53] + r[53] <= 0
 mccormick2[54]: - x[54] + r[54] <= 0
 mccormick2[55]: - x[55] + r[55] <= 0
 mccormick2[56]: - x[56] + r[56] <= 0
 mccormick2[57]: - x[57] + r[57] <= 0
 mccormick2[58]: - x[58] + r[58] <= 0
 mccormick2[59]: - x[59] + r[59] <= 0
 mccormick3[0]: x[0] + u[0] - r[0] <= 1
 mccormick3[1]: x[1] + u[1] - r[1] <= 1
 mccormick3[2]: x[2] + u[2] - r[2] <= 1
 mccormick3[3]: x[3] + u[3] - r[3] <= 1
 mccormick3[4]: x[4] + u[4] - r[4] <= 1
 mccormick3[5]: x[5] + u[5] - r[5] <= 1
 mccormick3[6]: x[6] + u[6] - r[6] <= 1
 mccormick3[7]: x[7] + u[7] - r[7] <= 1
 mccormick3[8]: x[8] + u[8] - r[8] <= 1
 mccormick3[9]: x[9] + u[9] - r[9] <= 1
 mccormick3[10]: x[10] + u[10] - r[10] <= 1
 mccormick3[11]: x[11] + u[11] - r[11] <= 1
 mccormick3[12]: x[12] + u[12] - r[12] <= 1
 mccormick3[13]: x[13] + u[13] - r[13] <= 1
 mccormick3[14]: x[14] + u[14] - r[14] <= 1
 mccormick3[15]: x[15] + u[15] - r[15] <= 1
 mccormick3[16]: x[16] + u[16] - r[16] <= 1
 mccormick3[17]: x[17] + u[17] - r[17] <= 1
 mccormick3[18]: x[18] + u[18] - r[18] <= 1
 mccormick3[19]: x[19] + u[19] - r[19] <= 1
 mccormick3[20]: x[20] + u[20] - r[20] <= 1
 mccormick3[21]: x[21] + u[21] - r[21] <= 1
 mccormick3[22]: x[22] + u[22] - r[22] <= 1
 mccormick3[23]: x[23] + u[23] - r[23] <= 1
 mccormick3[24]: x[24] + u[24] - r[24] <= 1
 mccormick3[25]: x[25] + u[25] - r[25] <= 1
 mccormick3[26]: x[26] + u[26] - r[26] <= 1
 mccormick3[27]: x[27] + u[27] - r[27] <= 1
 mccormick3[28]: x[28] + u[28] - r[28] <= 1
 mccormick3[29]: x[29] + u[29] - r[29] <= 1
 mccormick3[30]: x[30] + u[30] - r[30] <= 1
 mccormick3[31]: x[31] + u[31] - r[31] <= 1
 mccormick3[32]: x[32] + u[32] - r[32] <= 1
 mccormick3[33]: x[33] + u[33] - r[33] <= 1
 mccormick3[34]: x[34] + u[34] - r[34] <= 1
 mccormick3[35]: x[35] + u[35] - r[35] <= 1
 mccormick3[36]: x[36] + u[36] - r[36] <= 1
 mccormick3[37]: x[37] + u[37] - r[37] <= 1
 mccormick3[38]: x[38] + u[38] - r[38] <= 1
 mccormick3[39]: x[39] + u[39] - r[39] <= 1
 mccormick3[40]: x[40] + u[40] - r[40] <= 1
 mccormick3[41]: x[41] + u[41] - r[41] <= 1
 mccormick3[42]: x[42] + u[42] - r[42] <= 1
 mccormick3[43]: x[43] + u[43] - r[43] <= 1
 mccormick3[44]: x[44] + u[44] - r[44] <= 1
 mccormick3[45]: x[45] + u[45] - r[45] <= 1
 mccormick3[46]: x[46] + u[46] - r[46] <= 1
 mccormick3[47]: x[47] + u[47] - r[47] <= 1
 mccormick3[48]: x[48] + u[48] - r[48] <= 1
 mccormick3[49]: x[49] + u[49] - r[49] <= 1
 mccormick3[50]: x[50] + u[50] - r[50] <= 1
 mccormick3[51]: x[51] + u[51] - r[51] <= 1
 mccormick3[52]: x[52] + u[52] - r[52] <= 1
 mccormick3[53]: x[53] + u[53] - r[53] <= 1
 mccormick3[54]: x[54] + u[54] - r[54] <= 1
 mccormick3[55]: x[55] + u[55] - r[55] <= 1
 mccormick3[56]: x[56] + u[56] - r[56] <= 1
 mccormick3[57]: x[57] + u[57] - r[57] <= 1
 mccormick3[58]: x[58] + u[58] - r[58] <= 1
 mccormick3[59]: x[59] + u[59] - r[59] <= 1
Bounds
Binaries
 x[0] x[1] x[2] x[3] x[4] x[5] x[6] x[7] x[8] x[9] x[10] x[11] x[12] x[13]
 x[14] x[15] x[16] x[17] x[18] x[19] x[20] x[21] x[22] x[23] x[24] x[25]
 x[26] x[27] x[28] x[29] x[30] x[31] x[32] x[33] x[34] x[35] x[36] x[37]
 x[38] x[39] x[40] x[41] x[42] x[43] x[44] x[45] x[46] x[47] x[48] x[49]
 x[50] x[51] x[52] x[53] x[54] x[55] x[56] x[57] x[58] x[59] u[0] u[1] u[2]
 u[3] u[4] u[5] u[6] u[7] u[8] u[9] u[10] u[11] u[12] u[13] u[14] u[15]
 u[16] u[17] u[18] u[19] u[20] u[21] u[22] u[23] u[24] u[25] u[26] u[27]
 u[28] u[29] u[30] u[31] u[32] u[33] u[34] u[35] u[36] u[37] u[38] u[39]
 u[40] u[41] u[42] u[43] u[44] u[45] u[46] u[47] u[48] u[49] u[50] u[51]
 u[52] u[53] u[54] u[55] u[56] u[57] u[58] u[59] r[0] r[1] r[2] r[3] r[4]
 r[5] r[6] r[7] r[8] r[9] r[10] r[11] r[12] r[13] r[14] r[15] r[16] r[17]
 r[18] r[19] r[20] r[21] r[22] r[23] r[24] r[25] r[26] r[27] r[28] r[29]
 r[30] r[31] r[32] r[33] r[34] r[35] r[36] r[37] r[38] r[39] r[40] r[41]
 r[42] r[43] r[44] r[45] r[46] r[47] r[48] r[49] r[50] r[51] r[52] r[53]
 r[54] r[55] r[56] r[57] r[58] r[59]
End
