instances/knapsack/discrete/knapsack_60_20.kp
57142
60
288

90 9.0 16
58 5.8 17
24 2.4 82
73 7.3 26
30 3.0 44
60 6.0 47
7 0.7 28
54 5.4 18
47 4.7 1
56 5.6 5
22 2.2 37
13 1.3 9
26 2.6 33
18 1.8 84
15 1.5 61
79 7.9 94
11 1.1 56
2 0.2 56
43 4.3 49
100 10.0 56
63 6.3 72
2 0.2 65
82 8.2 62
53 5.3 86
63 6.3 67
74 7.4 49
76 7.6 94
46 4.6 66
16 1.6 88
97 9.7 19
72 7.2 3
22 2.2 2
74 7.4 42
51 5.1 41
58 5.8 14
59 5.9 27
34 3.4 51
7 0.7 25
10 1.0 89
73 7.3 86
85 8.5 18
52 5.2 88
8 0.8 48
64 6.4 41
61 6.1 69
53 5.3 53
56 5.6 71
56 5.6 55
69 6.9 19
66 6.6 36
57 5.7 81
82 8.2 33
91 9.1 13
14 1.4 67
91 9.1 82
50 5.0 56
55 5.5 21
37 3.7 34
58 5.8 54
60 6.0 45

99646
295

[3.643361633467355 4.191529627649301 1.9305578844582219 3.143175081456986 3.158958939768837 2.0437044298633733 1.485082813408256 0.8535771615215273 4.827174281694469 1.9417610528189857 0.5208343684072264 4.261111943328159 2.137793385187944 3.070906144697987 0.9117980269671707 0.009896389307585213 3.3296584910371827 2.1999089917026518 1.4739094637708856 4.559724227065904 2.3904885923222388 0.6048817658287028 4.14844499381808 1.5482153458272154 4.395726749367357 3.035221673796331 2.5123771043334684 3.899638279421604 1.3198434139151973 1.2673411286342224 0.8609921414890775 1.3698355828058566 1.5346814401220006 1.2336385409315362 0.5461792870932491 1.2852753863063886 1.015051537824533 2.1089857451615495 0.8816595243123506 3.1296855351735284 2.307446997722559 2.5504100736805935 4.329216696792063 2.8960490209515033 0.15437561640102843 2.5158232178150652 0.7601384144175918 4.907715380094476 3.0424105596573847 4.419696850920762 4.264225742251579 4.455018620466347 4.498447578262948 3.3504453592780874 3.7288439047479143 0.4175488794440386 3.5527218972410153 0.3962933370561051 1.6928132324916574 0.1476354631974087]

[14 74 60 17 90 60 19 82 55 76 6 73 54 86 15 27 35 98 75 24 15 70 42 97 47 22 80 70 20 61 76 42 50 83 18 39 18 47 98 65 73 32 88 92 1 97 68 92 9 98 85 10 67 22 19 6 27 49 66 4]
